2607
1069
3452
1841
2366
889
3038
755
2906
2274
2035
2084
3369
1096
3545
2623
1511
2702
1222
1889
793
2755
1851
2454
1020
3243
2342
1249
1588
2107
1972
1705
383
2090
1265
1846
1251
2951
3591
3775
963
2736
2801
1493
1262
1114
3320
2925
539
1679

35318
6363
42446
14954
27173
9577
35255
2704
43368
26250

1110
200
1334
470
854
301
1108
85
1363
825

2295

109
20
130
46
84
30
108
9
133
81
71
84
121
21
142
117
63
124
49
73
14
105
83
105
29
127
90
39
76
81
53
79
18
98
48
74
21
134
139
145
23
87
116
27
14
50
121
142
22
53
